{"lblp_lower": [334.4144643626164, 338.4230528038841, 338.74600786897014, 338.81150104011857], "cuttingPlaneBendInfo": [{"tot_cut_value": 0, "TOT_gen_cut": 0, "tot_time_opt": 0, "max_time_opt": 0}, {"tot_cut_value": 0, "TOT_gen_cut": 0, "tot_time_opt": 0, "max_time_opt": 0}, {"tot_cut_value": 0, "TOT_gen_cut": 0, "tot_time_opt": 0, "max_time_opt": 0}, {"tot_cut_value": 0, "TOT_gen_cut": 0, "tot_time_opt": 0, "max_time_opt": 0}], "time_compress": [0, 0, 0], "ub_lp": [389.4860791377012, 342.400961209647, 340.45988589026604, 338.8115010401185], "prob_sizes_at_start": [{"ngGraph": 52}, {"ngGraph": 98}, {"ngGraph": 130}, {"ngGraph": 143}], "prob_sizes_after_compress": [{"ngGraph": 48}, {"ngGraph": 57}, {"ngGraph": 65}, {"ngGraph": 65}], "prob_sizes_after_split": [{"ngGraph": 98}, {"ngGraph": 130}, {"ngGraph": 143}, {"ngGraph": 143}], "did_compress": [true, true, true, true], "lp_time_project": [0.018233060836791992, 0.010118961334228516, 0.007023811340332031, 0.0063419342041015625], "lp_time_LB": [0.09570813179016113, 0.018360137939453125, 0.020642757415771484, 0.02338695526123047], "ilp_time": [], "history_of_graphs_by_iter": [], "ROOT_LP_PRIOR_ADDING_CUTS": 338.81150104011857, "OUR_ilp_objective": 361.4000000000001, "OUR_MIP_Lower_Bound": 361.4000000000001, "OUR_ilp_time": 0.5292990207672119, "OUR_gurobi_MILP_str": "Gurobi Optimizer version 12.0.1 build v12.0.1rc0 (mac64[arm] - Darwin 24.5.0 24F74)\n\nCPU model: Apple M1\nThread count: 8 physical cores, 8 logical processors, using up to 8 threads\n\nNon-default parameters:\nTimeLimit  1000\n\nWLS license 2690165 - registered to Optym\nOptimize a model with 6229 rows, 4237 columns and 27630 nonzeros\nModel fingerprint: 0x663c5a22\nVariable types: 2507 continuous, 1730 integer (1730 binary)\nCoefficient statistics:\n  Matrix range     [3e-01, 1e+03]\n  Objective range  [1e+00, 6e+01]\n  Bounds range     [1e+00, 1e+03]\n  RHS range        [1e+00, 1e+03]\nPresolve removed 4927 rows and 2939 columns\nPresolve time: 0.05s\nPresolved: 1302 rows, 1298 columns, 13102 nonzeros\nVariable types: 624 continuous, 674 integer (674 binary)\nFound heuristic solution: objective 1348.4000000\n\nRoot relaxation: objective 3.456347e+02, 433 iterations, 0.01 seconds (0.01 work units)\n\n    Nodes    |    Current Node    |     Objective Bounds      |     Work\n Expl Unexpl |  Obj  Depth IntInf | Incumbent    BestBd   Gap | It/Node Time\n\n     0     0  345.63467    0   33 1348.40000  345.63467  74.4%     -    0s\nH    0     0                     532.0000000  345.63467  35.0%     -    0s\nH    0     0                     512.2000000  345.63467  32.5%     -    0s\nH    0     0                     500.4000000  345.63467  30.9%     -    0s\nH    0     0                     382.7000000  345.63467  9.69%     -    0s\nH    0     0                     362.7000000  345.63467  4.71%     -    0s\n     0     0  351.06874    0   29  362.70000  351.06874  3.21%     -    0s\n     0     0  351.51925    0   25  362.70000  351.51925  3.08%     -    0s\n     0     0  351.52800    0   25  362.70000  351.52800  3.08%     -    0s\n     0     0  351.97818    0   33  362.70000  351.97818  2.96%     -    0s\n     0     0  351.97818    0   27  362.70000  351.97818  2.96%     -    0s\nH    0     0                     362.4000000  351.97818  2.88%     -    0s\nH    0     0                     361.4000000  351.97818  2.61%     -    0s\n     0     0  351.97818    0   27  361.40000  351.97818  2.61%     -    0s\n     0     0  351.97818    0   30  361.40000  351.97818  2.61%     -    0s\n     0     0  351.97818    0   34  361.40000  351.97818  2.61%     -    0s\n     0     0  352.89092    0   38  361.40000  352.89092  2.35%     -    0s\n     0     0  352.96419    0   34  361.40000  352.96419  2.33%     -    0s\n     0     0  352.98607    0   40  361.40000  352.98607  2.33%     -    0s\n     0     0  353.55913    0   11  361.40000  353.55913  2.17%     -    0s\n     0     0  354.03095    0   11  361.40000  354.03095  2.04%     -    0s\n     0     0  354.03095    0   11  361.40000  354.03095  2.04%     -    0s\n     0     2  354.03095    0   11  361.40000  354.03095  2.04%     -    0s\n\nCutting planes:\n  Learned: 4\n  Gomory: 5\n  Cover: 11\n  Implied bound: 6\n  Clique: 1\n  MIR: 29\n  StrongCG: 11\n  Flow cover: 1\n  GUB cover: 1\n  RLT: 2\n  Relax-and-lift: 10\n\nExplored 536 nodes (7221 simplex iterations) in 0.53 seconds (0.55 work units)\nThread count was 8 (of 8 available processors)\n\nSolution count 8: 361.4 362.4 362.7 ... 1348.4\n\nOptimal solution found (tolerance 1.00e-04)\nBest objective 3.614000000000e+02, best bound 3.614000000000e+02, gap 0.0000%\n", "jy_opt": {"ParetoEps": 1e-05, "turn_off_time_windows": false, "deactivate_time_graph": false, "deactivate_demand_graph": false, "epsilon": 0.0001, "weight_slack_projector": 1e-05, "weight_compress": 0.01, "num_cust_use": 50, "dem_step_sz": 1, "time_step_sz": 25, "use_compression": 1, "max_iterations_loop_compress_project": 100, "do_round_dist_times": 1, "my_shift_bet_time_win": 0.0001, "num_terms_per_bin_init_construct": 10, "allOneBig_init": 0, "min_inc_2_compress": 0.1, "save_graph_each_iter": 0, "use_Xpress": 0, "use_ineq": false, "xpress_file_loc": "/Users/julian/Documents/FICO_Xpress_Config/xpauth.xpr", "run_baseline": 0, "verbose": 0, "use_NG_graph": false, "num_NG": 5, "in_demo_mode": 0, "threshold_split": 0.01, "offset_cost_edge_project": 0, "use_classic_compress": 1, "use_classic_compress_last": 0, "num_thresh_split_projector": 10, "lplb_solver": 4, "compresss_solver": 0, "proj_solver": 4, "use_julians_custom_lp_solver": 0, "do_ilp": 1, "roundingDiscretization_num_digits_keep": 3, "doExrtraRemovalEdgesLB": 0, "use_gurobi": 1, "max_ILP_time": 1000, "use_fancy_ng_graph": 1, "use_dem_graph": false, "use_time_graph": false, "num_multiplys_demand": 0, "DEBUG_ALLOW_DUMB_EDGES": 0, "add_all_ng_split_at_end": 0, "do_split_based_init": 1, "think_compress": 0, "use_delta_in_milp": [1], "use_delta_in_lp": 1, "turn_off_non_active_fg_project": 0, "use_new_valid_ineq": 0, "digit_mult_use": 10, "use_branch_on_g": true, "LAB_MP_ON": 0, "LAB_MP_neigh_use_power": 10, "LAB_MP_num_ineq_use": 10, "do_remove_actions_from_incumbant": 1, "ub_use_remove": 361.4, "use_packing_in_construction": 1, "maxVarsAdd_in_ITER": 10, "use_ng_size_init": 0, "do_presolve": 0, "use_diving_ineq": 0, "BEND_MIN_LP_OBJECTIVE_CUT": 0.1, "BEND_USE_RAND": 0, "BEND_MAX_SIZE_CHOOSE_K": 260, "BEND_VAL_STOP_ADDING_CUTS": 100000000, "BEND_MY_SIZES_USE": [9], "NUMERICAL_BEND_OFFSET_COST_CUT": 0.0001, "NUMERICAL_BEND_EPSILON_MULT_PARETO_OBJ": 0.001, "NO_PARETO_NUMERICAL_BEND_OFFSET_COST_CUT": 0, "NO_PARETO_BEND_VAL_STOP_ADDING_CUTS": 1, "NO_PARETO_EPSILON_MAX_VAL_CON": 0.01, "BENDERS_NEIGH_SZ_USE": 9, "Actions_of_given_sol": [], "all_vars_binary": 0, "use_ng": 1, "restore_after_each_step": 1, "compress_solver": 1, "DEBUG_NG_turn_off_CLEAN": false, "max_nodes_split": Infinity}, "output_ilp_solution": {"act_0_2": 1, "act_1_0": 1, "act_2_4": 1, "act_3_1": 1, "act_4_51": 1, "act_5_3": 1, "act_6_7": 1, "act_7_9": 1, "act_8_5": 1, "act_9_10": 1, "act_10_8": 1, "act_11_51": 1, "act_12_16": 1, "act_13_11": 1, "act_14_15": 1, "act_15_13": 1, "act_16_17": 1, "act_17_18": 1, "act_18_14": 1, "act_19_23": 1, "act_20_51": 1, "act_21_20": 1, "act_22_21": 1, "act_23_24": 1, "act_24_26": 1, "act_25_22": 1, "act_26_28": 1, "act_27_25": 1, "act_28_29": 1, "act_29_27": 1, "act_30_34": 1, "act_31_32": 1, "act_32_30": 1, "act_33_51": 1, "act_34_36": 1, "act_35_33": 1, "act_36_37": 1, "act_37_38": 1, "act_38_35": 1, "act_39_43": 1, "act_40_39": 1, "act_41_40": 1, "act_42_41": 1, "act_43_45": 1, "act_44_47": 1, "act_45_44": 1, "act_46_51": 1, "act_47_49": 1, "act_48_46": 1, "act_49_48": 1, "act_50_6": 1, "act_50_12": 1, "act_50_19": 1, "act_50_31": 1, "act_50_42": 1}, "Actions_of_given_sol": "none just used source and sink terms", "actions_used": ["act_0_2", "act_1_0", "act_2_4", "act_3_1", "act_4_51", "act_5_3", "act_6_7", "act_7_9", "act_8_5", "act_9_10", "act_10_8", "act_11_51", "act_12_16", "act_13_11", "act_14_15", "act_15_13", "act_16_17", "act_17_18", "act_18_14", "act_19_23", "act_20_51", "act_21_20", "act_22_21", "act_23_24", "act_24_26", "act_25_22", "act_26_28", "act_27_25", "act_28_29", "act_29_27", "act_30_34", "act_31_32", "act_32_30", "act_33_51", "act_34_36", "act_35_33", "act_36_37", "act_37_38", "act_38_35", "act_39_43", "act_40_39", "act_41_40", "act_42_41", "act_43_45", "act_44_47", "act_45_44", "act_46_51", "act_47_49", "act_48_46", "act_49_48", "act_50_6", "act_50_12", "act_50_19", "act_50_31", "act_50_42"], "init_default_solution_is_empty": false, "objective_of_initial_sol": 2407.7999999999984, "my_paths": "[[50, 6, 7, 9, 10, 8, 5, 3, 1, 0, 2, 4, 51], [50, 12, 16, 17, 18, 14, 15, 13, 11, 51], [50, 19, 23, 24, 26, 28, 29, 27, 25, 22, 21, 20, 51], [50, 31, 32, 30, 34, 36, 37, 38, 35, 33, 51], [50, 42, 41, 40, 39, 43, 45, 44, 47, 49, 48, 46, 51]]"}